Gurobi Optimizer version 9.1.2 build v9.1.2rc0 (linux64)
Thread count: 36 physical cores, 72 logical processors, using up to 32 threads
Optimize a model with 12 rows, 57 columns and 590 nonzeros
Model fingerprint: 0xf32eec78
Model has 47 quadratic constraints
Coefficient statistics:
  Matrix range     [2e-05, 3e+00]
  QMatrix range    [1e+00, 1e+00]
  QLMatrix range   [1e+00, 1e+00]
  Objective range  [8e-03, 7e-01]
  Bounds range     [1e+00, 1e+00]
  RHS range        [1e+00, 1e+00]
Presolve removed 9 rows and 0 columns

Continuous model is non-convex -- solving as a MIP.

Presolve removed 9 rows and 0 columns
Presolve time: 0.00s
Presolved: 189 rows, 57 columns, 443 nonzeros
Presolved model has 47 bilinear constraint(s)
Variable types: 57 continuous, 0 integer (0 binary)

Root relaxation: objective -1.743721e+00, 44 iterations, 0.00 seconds

    Nodes    |    Current Node    |     Objective Bounds      |     Work
 Expl Unexpl |  Obj  Depth IntInf | Incumbent    BestBd   Gap | It/Node Time

     0     0   -1.74372    0   38          -   -1.74372      -     -    0s
H    0     0                       0.6147548   -1.74372   384%     -    0s
     0     0   -1.64739    0    1    0.61475   -1.64739   368%     -    0s
H    0     0                      -1.6450460   -1.64739  0.14%     -    0s
     0     0     cutoff    0        -1.64505   -1.64505  0.00%     -    0s

Cutting planes:
  RLT: 25
  BQP: 3

Explored 1 nodes (76 simplex iterations) in 0.01 seconds
Thread count was 32 (of 72 available processors)

Solution count 2: -1.64505 0.614755 
No other solutions better than -1.64505

Optimal solution found (tolerance 1.00e-04)
Best objective -1.645045978473e+00, best bound -1.645045978473e+00, gap 0.0000%

User-callback calls 78, time in user-callback 0.00 sec
Gurobi Optimizer version 9.1.2 build v9.1.2rc0 (linux64)
Thread count: 36 physical cores, 72 logical processors, using up to 32 threads
Optimize a model with 60 rows, 312 columns and 16100 nonzeros
Model fingerprint: 0x420c8af2
Model has 262 quadratic constraints
Coefficient statistics:
  Matrix range     [4e-07, 7e+00]
  QMatrix range    [1e+00, 1e+00]
  QLMatrix range   [1e+00, 1e+00]
  Objective range  [5e-03, 1e+00]
  Bounds range     [1e+00, 1e+00]
  RHS range        [1e+00, 1e+00]
Presolve removed 17 rows and 0 columns

Continuous model is non-convex -- solving as a MIP.

Presolve removed 17 rows and 0 columns
Presolve time: 0.01s
Presolved: 1079 rows, 312 columns, 12823 nonzeros
Presolved model has 262 bilinear constraint(s)
Variable types: 312 continuous, 0 integer (0 binary)

Root relaxation: objective -2.438780e+01, 324 iterations, 0.02 seconds

    Nodes    |    Current Node    |     Objective Bounds      |     Work
 Expl Unexpl |  Obj  Depth IntInf | Incumbent    BestBd   Gap | It/Node Time

     0     0  -24.38780    0  164          -  -24.38780      -     -    0s
     0     0  -23.44314    0   69          -  -23.44314      -     -    0s
     0     0  -23.42087    0   69          -  -23.42087      -     -    0s
     0     0  -23.35212    0   65          -  -23.35212      -     -    0s
     0     0  -23.35039    0   65          -  -23.35039      -     -    0s
     0     0  -23.34683    0   74          -  -23.34683      -     -    0s
     0     0  -23.34607    0   74          -  -23.34607      -     -    0s
     0     0  -23.34370    0   74          -  -23.34370      -     -    0s
     0     0  -23.34221    0   74          -  -23.34221      -     -    0s
     0     0  -23.34028    0   74          -  -23.34028      -     -    0s
     0     0  -23.34022    0   74          -  -23.34022      -     -    0s
     0     0  -23.33827    0   74          -  -23.33827      -     -    0s
     0     0  -23.33757    0   74          -  -23.33757      -     -    0s
     0     0  -23.33521    0   74          -  -23.33521      -     -    0s
     0     0  -23.33495    0   74          -  -23.33495      -     -    0s
     0     0  -23.33487    0   74          -  -23.33487      -     -    0s
     0     0  -23.33487    0   74          -  -23.33487      -     -    0s
     0     2  -23.33487    0   74          -  -23.33487      -     -    0s
* 2317  1991              49     -21.9101224  -22.64272  3.34%  39.4    1s
* 3070  1983              69     -22.3133615  -22.58300  1.21%  36.1    1s
* 4404  1818              43     -22.3145104  -22.47272  0.71%  35.1    2s
* 4407  1818              44     -22.3145107  -22.47272  0.71%  35.1    2s
* 4602  1837              43     -22.3152112  -22.47272  0.71%  34.7    2s
* 4603  1837              43     -22.3152148  -22.47272  0.71%  34.7    2s
* 4809  1839              43     -22.3152313  -22.46408  0.67%  34.0    2s
* 4810  1839              43     -22.3152347  -22.46408  0.67%  34.0    2s
* 4968  1831              57     -22.3162103  -22.45824  0.64%  33.6    2s
* 5071  1831              59     -22.3179087  -22.45824  0.63%  33.2    2s
* 5072  1831              59     -22.3179326  -22.45824  0.63%  33.2    2s
* 5280  1818              69     -22.3219039  -22.45824  0.61%  32.4    2s
* 5752  1929              53     -22.3219172  -22.43862  0.52%  31.3    2s
* 5830  1929              50     -22.3223950  -22.43862  0.52%  31.0    2s
* 8189   841              62     -22.3226250  -22.43862  0.52%  33.7    4s
* 8301   743              52     -22.3226375  -22.43862  0.52%  33.5    4s
* 8343   740              62     -22.3226382  -22.43862  0.52%  33.4    4s
* 8458   648              60     -22.3227138  -22.43862  0.52%  33.2    4s
* 8459   596              60     -22.3227178  -22.43862  0.52%  33.2    4s
* 8496   610              63     -22.3244333  -22.43862  0.51%  33.2    4s
* 9133   806              65     -22.3357588  -22.43862  0.46%  32.1    4s
* 9818  1105              65     -22.3369378  -22.43862  0.46%  30.9    4s
* 9978  1232              59     -22.3698454  -22.43862  0.31%  30.6    4s
* 9979  1232              60     -22.3698501  -22.43862  0.31%  30.6    4s
*10341  1233              62     -22.3752023  -22.43862  0.28%  30.1    4s
*10342  1233              62     -22.3752024  -22.43862  0.28%  30.1    4s
 10597  1313  -22.38767   40   20  -22.37520  -22.43862  0.28%  29.8    5s
*10919  1345              79     -22.3755261  -22.43862  0.28%  29.4    5s
*10921  1345              80     -22.3755265  -22.43862  0.28%  29.4    5s
*11413  1456              70     -22.3756256  -22.43862  0.28%  28.8    5s
*11601  1456              68     -22.3764876  -22.43862  0.28%  28.5    5s
*11605  1456              69     -22.3765441  -22.43862  0.28%  28.5    5s
*11610  1456              69     -22.3765442  -22.43862  0.28%  28.5    5s
*12347  1587              71     -22.3801179  -22.41863  0.17%  27.5    5s
*12556  1580              80     -22.3802354  -22.41863  0.17%  27.2    5s
*13083  1572              75     -22.3809977  -22.41863  0.17%  26.8    5s
*13143  1596              72     -22.3835258  -22.39982  0.07%  26.7    5s
*13185  1596              74     -22.3835283  -22.39982  0.07%  26.7    5s
*13333  1596              74     -22.3835287  -22.39982  0.07%  26.5    5s
*13370  1596              75     -22.3835289  -22.39982  0.07%  26.4    5s
*14527    74              71     -22.3835309  -22.38835  0.02%  24.8    5s
*15006    74              72     -22.3835312  -22.38606  0.01%  24.1    5s

Explored 15289 nodes (361551 simplex iterations) in 5.67 seconds
Thread count was 32 (of 72 available processors)

Solution count 10: -22.3835 -22.3835 -22.3835 ... -22.3765

Optimal solution found (tolerance 1.00e-04)
Best objective -2.238353117789e+01, best bound -2.238387433715e+01, gap 0.0015%

User-callback calls 31518, time in user-callback 0.01 sec



objective value: -22.383531177890983
objective bound: -22.383874337147788
x_opt: [0.9999601448095394, 1.0, 0.0, 0.38399625316442776, 0.0, 0.0, 1.0, 0.0, 0.0, 0.0, 1.0, 0.0, 1.0, 1.0, 0.1611560815092258, 1.0, 0.0, 1.0, 0.0, 0.0, 1.0, 0.6765481226624938, 0.0, 0.8218179249946659, 0.0, 0.7925698557776184, 0.0, 1.0, 0.0, 0.0, 1.0, 0.8788830762483663, 0.0, 0.3808330227852621, 1.0, 1.0, 0.06683357468127028, 1.0, 0.0, 0.8139606581495625, 1.0, 0.0, 1.0, 0.0, 0.0, 0.09256345177286998, 0.9124362222755344, 0.0, 1.0, 0.16822053507984636]
GUROBI solution time: 5.668662071228027




